923030
0,69,46,56,32,8,19,20,95,29,76,55,9,61,59,30,92,48,68,5,74,17,40,52,7,88,84,2,4,63,1,26,66,81,15,57,60,82,14,10,22,53,97,27,45,33,70,89,58,18,11,93,28,78,77,24,50,39,25,16,23,42,51,64,21,83,91,38,13,85,80,6,72,94,65,3,44,86,75,37,87,49,34,41,96,90,43,54,71,35,98,79,67,62,12,31,73,36,47,0